c nIsolatedPIs 8
c maxPI 56
p cnf 211 466
c gate 57 -23 -51 0
-23 -57 0
-51 -57 0
23 51 57 0
c gate 58 -22 -50 0
-22 -58 0
-50 -58 0
22 50 58 0
c gate 59 -57 -58 0
-57 -59 0
-58 -59 0
57 58 59 0
c gate 60 22 50 0
22 -60 0
50 -60 0
-22 -50 60 0
c gate 61 21 49 0
21 -61 0
49 -61 0
-21 -49 61 0
c gate 62 -60 -61 0
-60 -62 0
-61 -62 0
60 61 62 0
c gate 63 59 -62 0
59 -63 0
-62 -63 0
-59 62 63 0
c gate 64 24 52 0
24 -64 0
52 -64 0
-24 -52 64 0
c gate 65 23 51 0
23 -65 0
51 -65 0
-23 -51 65 0
c gate 66 -64 -65 0
-64 -66 0
-65 -66 0
64 65 66 0
c gate 67 -63 66 0
-63 -67 0
66 -67 0
63 -66 67 0
c gate 68 -28 -56 0
-28 -68 0
-56 -68 0
28 56 68 0
c gate 69 25 53 0
25 -69 0
53 -69 0
-25 -53 69 0
c gate 70 26 54 0
26 -70 0
54 -70 0
-26 -54 70 0
c gate 71 -69 -70 0
-69 -71 0
-70 -71 0
69 70 71 0
c gate 72 -68 71 0
-68 -72 0
71 -72 0
68 -71 72 0
c gate 73 28 56 0
28 -73 0
56 -73 0
-28 -56 73 0
c gate 74 27 55 0
27 -74 0
55 -74 0
-27 -55 74 0
c gate 75 -73 -74 0
-73 -75 0
-74 -75 0
73 74 75 0
c gate 76 -24 -52 0
-24 -76 0
-52 -76 0
24 52 76 0
c gate 77 -27 -55 0
-27 -77 0
-55 -77 0
27 55 77 0
c gate 78 -76 -77 0
-76 -78 0
-77 -78 0
76 77 78 0
c gate 79 -25 -53 0
-25 -79 0
-53 -79 0
25 53 79 0
c gate 80 -26 -54 0
-26 -80 0
-54 -80 0
26 54 80 0
c gate 81 -79 -80 0
-79 -81 0
-80 -81 0
79 80 81 0
c gate 82 78 81 0
78 -82 0
81 -82 0
-78 -81 82 0
c gate 83 75 82 0
75 -83 0
82 -83 0
-75 -82 83 0
c gate 84 72 83 0
72 -84 0
83 -84 0
-72 -83 84 0
c gate 85 -67 84 0
-67 -85 0
84 -85 0
67 -84 85 0
c gate 86 2 30 0
2 -86 0
30 -86 0
-2 -30 86 0
c gate 87 1 29 0
1 -87 0
29 -87 0
-1 -29 87 0
c gate 88 -86 -87 0
-86 -88 0
-87 -88 0
86 87 88 0
c gate 89 -3 -31 0
-3 -89 0
-31 -89 0
3 31 89 0
c gate 90 -2 -30 0
-2 -90 0
-30 -90 0
2 30 90 0
c gate 91 -89 -90 0
-89 -91 0
-90 -91 0
89 90 91 0
c gate 92 -88 91 0
-88 -92 0
91 -92 0
88 -91 92 0
c gate 93 3 31 0
3 -93 0
31 -93 0
-3 -31 93 0
c gate 94 4 32 0
4 -94 0
32 -94 0
-4 -32 94 0
c gate 95 -93 -94 0
-93 -95 0
-94 -95 0
93 94 95 0
c gate 96 -92 95 0
-92 -96 0
95 -96 0
92 -95 96 0
c gate 97 8 36 0
8 -97 0
36 -97 0
-8 -36 97 0
c gate 98 7 35 0
7 -98 0
35 -98 0
-7 -35 98 0
c gate 99 -97 -98 0
-97 -99 0
-98 -99 0
97 98 99 0
c gate 100 -8 -36 0
-8 -100 0
-36 -100 0
8 36 100 0
c gate 101 -7 -35 0
-7 -101 0
-35 -101 0
7 35 101 0
c gate 102 -100 -101 0
-100 -102 0
-101 -102 0
100 101 102 0
c gate 103 99 102 0
99 -103 0
102 -103 0
-99 -102 103 0
c gate 104 5 33 0
5 -104 0
33 -104 0
-5 -33 104 0
c gate 105 6 34 0
6 -105 0
34 -105 0
-6 -34 105 0
c gate 106 -104 -105 0
-104 -106 0
-105 -106 0
104 105 106 0
c gate 107 -6 -34 0
-6 -107 0
-34 -107 0
6 34 107 0
c gate 108 -5 -33 0
-5 -108 0
-33 -108 0
5 33 108 0
c gate 109 -4 -32 0
-4 -109 0
-32 -109 0
4 32 109 0
c gate 110 -108 -109 0
-108 -110 0
-109 -110 0
108 109 110 0
c gate 111 -107 110 0
-107 -111 0
110 -111 0
107 -110 111 0
c gate 112 106 111 0
106 -112 0
111 -112 0
-106 -111 112 0
c gate 113 103 112 0
103 -113 0
112 -113 0
-103 -112 113 0
c gate 114 -96 113 0
-96 -114 0
113 -114 0
96 -113 114 0
c gate 115 -99 -100 0
-99 -115 0
-100 -115 0
99 100 115 0
c gate 116 -106 -107 0
-106 -116 0
-107 -116 0
106 107 116 0
c gate 117 103 116 0
103 -117 0
116 -117 0
-103 -116 117 0
c gate 118 -115 -117 0
-115 -118 0
-117 -118 0
115 117 118 0
c gate 119 -114 118 0
-114 -119 0
118 -119 0
114 -118 119 0
c gate 120 10 38 0
10 -120 0
38 -120 0
-10 -38 120 0
c gate 121 9 37 0
9 -121 0
37 -121 0
-9 -37 121 0
c gate 122 -120 -121 0
-120 -122 0
-121 -122 0
120 121 122 0
c gate 123 -10 -38 0
-10 -123 0
-38 -123 0
10 38 123 0
c gate 124 -9 -37 0
-9 -124 0
-37 -124 0
9 37 124 0
c gate 125 -123 -124 0
-123 -125 0
-124 -125 0
123 124 125 0
c gate 126 122 125 0
122 -126 0
125 -126 0
-122 -125 126 0
c gate 127 -119 126 0
-119 -127 0
126 -127 0
119 -126 127 0
c gate 128 -122 -123 0
-122 -128 0
-123 -128 0
122 123 128 0
c gate 129 -127 -128 0
-127 -129 0
-128 -129 0
127 128 129 0
c gate 130 12 40 0
12 -130 0
40 -130 0
-12 -40 130 0
c gate 131 11 39 0
11 -131 0
39 -131 0
-11 -39 131 0
c gate 132 -130 -131 0
-130 -132 0
-131 -132 0
130 131 132 0
c gate 133 -12 -40 0
-12 -133 0
-40 -133 0
12 40 133 0
c gate 134 -11 -39 0
-11 -134 0
-39 -134 0
11 39 134 0
c gate 135 -133 -134 0
-133 -135 0
-134 -135 0
133 134 135 0
c gate 136 132 135 0
132 -136 0
135 -136 0
-132 -135 136 0
c gate 137 -129 136 0
-129 -137 0
136 -137 0
129 -136 137 0
c gate 138 -132 -133 0
-132 -138 0
-133 -138 0
132 133 138 0
c gate 139 -137 -138 0
-137 -139 0
-138 -139 0
137 138 139 0
c gate 140 -13 -41 0
-13 -140 0
-41 -140 0
13 41 140 0
c gate 141 -14 -42 0
-14 -141 0
-42 -141 0
14 42 141 0
c gate 142 13 41 0
13 -142 0
41 -142 0
-13 -41 142 0
c gate 143 -141 -142 0
-141 -143 0
-142 -143 0
141 142 143 0
c gate 144 -140 143 0
-140 -144 0
143 -144 0
140 -143 144 0
c gate 145 -139 144 0
-139 -145 0
144 -145 0
139 -144 145 0
c gate 146 14 42 0
14 -146 0
42 -146 0
-14 -42 146 0
c gate 147 16 44 0
16 -147 0
44 -147 0
-16 -44 147 0
c gate 148 -16 -44 0
-16 -148 0
-44 -148 0
16 44 148 0
c gate 149 -147 -148 0
-147 -149 0
-148 -149 0
147 148 149 0
c gate 150 15 43 0
15 -150 0
43 -150 0
-15 -43 150 0
c gate 151 -15 -43 0
-15 -151 0
-43 -151 0
15 43 151 0
c gate 152 -150 -151 0
-150 -152 0
-151 -152 0
150 151 152 0
c gate 153 149 152 0
149 -153 0
152 -153 0
-149 -152 153 0
c gate 154 -146 153 0
-146 -154 0
153 -154 0
146 -153 154 0
c gate 155 145 154 0
145 -155 0
154 -155 0
-145 -154 155 0
c gate 156 -142 -146 0
-142 -156 0
-146 -156 0
142 146 156 0
c gate 157 -141 -156 0
-141 -157 0
-156 -157 0
141 156 157 0
c gate 158 153 157 0
153 -158 0
157 -158 0
-153 -157 158 0
c gate 159 -148 150 0
-148 -159 0
150 -159 0
148 -150 159 0
c gate 160 -147 -159 0
-147 -160 0
-159 -160 0
147 159 160 0
c gate 161 -158 160 0
-158 -161 0
160 -161 0
158 -160 161 0
c gate 162 -155 161 0
-155 -162 0
161 -162 0
155 -161 162 0
c gate 163 18 46 0
18 -163 0
46 -163 0
-18 -46 163 0
c gate 164 -18 -46 0
-18 -164 0
-46 -164 0
18 46 164 0
c gate 165 17 45 0
17 -165 0
45 -165 0
-17 -45 165 0
c gate 166 -164 165 0
-164 -166 0
165 -166 0
164 -165 166 0
c gate 167 -163 -166 0
-163 -167 0
-166 -167 0
163 166 167 0
c gate 168 19 47 0
19 -168 0
47 -168 0
-19 -47 168 0
c gate 169 20 48 0
20 -169 0
48 -169 0
-20 -48 169 0
c gate 170 -168 -169 0
-168 -170 0
-169 -170 0
168 169 170 0
c gate 171 -20 -48 0
-20 -171 0
-48 -171 0
20 48 171 0
c gate 172 -164 -171 0
-164 -172 0
-171 -172 0
164 171 172 0
c gate 173 -19 -47 0
-19 -173 0
-47 -173 0
19 47 173 0
c gate 174 -17 -45 0
-17 -174 0
-45 -174 0
17 45 174 0
c gate 175 -173 -174 0
-173 -175 0
-174 -175 0
173 174 175 0
c gate 176 172 175 0
172 -176 0
175 -176 0
-172 -175 176 0
c gate 177 170 176 0
170 -177 0
176 -177 0
-170 -176 177 0
c gate 178 167 177 0
167 -178 0
177 -178 0
-167 -177 178 0
c gate 179 -162 178 0
-162 -179 0
178 -179 0
162 -178 179 0
c gate 180 -123 136 0
-123 -180 0
136 -180 0
123 -136 180 0
c gate 181 139 180 0
139 -181 0
180 -181 0
-139 -180 181 0
c gate 182 118 -128 0
118 -182 0
-128 -182 0
-118 128 182 0
c gate 183 137 182 0
137 -183 0
182 -183 0
-137 -182 183 0
c gate 184 -181 -183 0
-181 -184 0
-183 -184 0
181 183 184 0
c gate 185 -138 -180 0
-138 -185 0
-180 -185 0
138 180 185 0
c gate 186 -140 -185 0
-140 -186 0
-185 -186 0
140 185 186 0
c gate 187 156 -186 0
156 -187 0
-186 -187 0
-156 186 187 0
c gate 188 -141 153 0
-141 -188 0
153 -188 0
141 -153 188 0
c gate 189 -187 188 0
-187 -189 0
188 -189 0
187 -188 189 0
c gate 190 -145 -157 0
-145 -190 0
-157 -190 0
145 157 190 0
c gate 191 -149 152 0
-149 -191 0
152 -191 0
149 -152 191 0
c gate 192 -190 191 0
-190 -192 0
191 -192 0
190 -191 192 0
c gate 193 -189 -192 0
-189 -193 0
-192 -193 0
189 192 193 0
c gate 194 -151 -190 0
-151 -194 0
-190 -194 0
151 190 194 0
c gate 195 -150 -194 0
-150 -195 0
-194 -195 0
150 194 195 0
c gate 196 -193 195 0
-193 -196 0
195 -196 0
193 -195 196 0
c gate 197 -184 -196 0
-184 -197 0
-196 -197 0
184 196 197 0
c gate 198 155 161 0
155 -198 0
161 -198 0
-155 -161 198 0
c gate 199 197 -198 0
197 -199 0
-198 -199 0
-197 198 199 0
c gate 200 -179 199 0
-179 -200 0
199 -200 0
179 -199 200 0
c gate 201 -167 -173 0
-167 -201 0
-173 -201 0
167 173 201 0
c gate 202 170 -201 0
170 -202 0
-201 -202 0
-170 201 202 0
c gate 203 -171 -202 0
-171 -203 0
-202 -203 0
171 202 203 0
c gate 204 -21 -49 0
-21 -204 0
-49 -204 0
21 49 204 0
c gate 205 -76 -204 0
-76 -205 0
-204 -205 0
76 204 205 0
c gate 206 59 205 0
59 -206 0
205 -206 0
-59 -205 206 0
c gate 207 67 206 0
67 -207 0
206 -207 0
-67 -206 207 0
c gate 208 -203 -207 0
-203 -208 0
-207 -208 0
203 207 208 0
c gate 209 179 -208 0
179 -209 0
-208 -209 0
-179 208 209 0
c gate 210 -200 -209 0
-200 -210 0
-209 -210 0
200 209 210 0
c gate 211 85 210 0
85 -211 0
210 -211 0
-85 -210 211 0
c PO
211 0
